(set-info :Origin "This instance was generated by: BanditFuzz-- an RL fuzzer for SMT solvers" )
(set-info :Author "Joseph Scott, Fed Mora, Vijay Ganesh" )
(set-info :Contact "Joseph Scott, joseph.scott@uwaterloo.ca")
(set-logic QF_S)
(declare-const bool_0 Bool)
(declare-const bool_1 Bool)
(declare-const bool_2 Bool)
(declare-const bool_3 Bool)
(declare-const bool_4 Bool)
(declare-const str_0 String)
(declare-const str_1 String)
(declare-const str_2 String)
(declare-const str_3 String)
(declare-const str_4 String)
(declare-const int_0 Int)
(declare-const int_1 Int)
(declare-const int_2 Int)
(declare-const int_3 Int)
(declare-const int_4 Int)
(assert (str.in_re (str.from_code (str.to_code (str.is_digit (str.replace_re ""AzMOLDu5OUM0KfSPHpgzK8mEVlVQU1XvQJJqQwhwhe1w7PrYx6q0Xktl4fyBw3EkmBggRIMc4Q4HVZLx9hw619qXsvl4ZwxeXUO3ENz0TR0vJBFbEZTdHQkGwYvOuvNaJ9fZQmQ6gZ3FTnUb91keQEAl6DkjffKfTAaAs9TfNfq839MrbthBQ0dAWz0s13r9jbAOVfARVEsp10z332WboOVBH6BGXjN3oApGXyadcqkCIU0XotpGWirHilbkBnMrzUeYjf34CVNerhv6ejjgPMBNsJU1cg0cMiLyRg9cY6buxYBYIZkcl0qlgeRzfAqRtxmHoUSgx7ypEJM8L4d0wvMUgI3bxyIXgmeEyhOKqI5Xm4bpUV8G4LC1Q1HwcAVFciT0xCpDkdHJ1zvsN28wAlSK8NQkPZ4f6bYq11tA7bp7UTPpwHQnOPZiPenHRCo9QdNjId0nXZ07Dym5a2YavCShFiqi6pW4htI3w2nNA1idm867huCfammXlhNnijaV9EeIGxNmoqxGquUJOgJ1LoR5L77vvY4NRXP1LLX558VQ8T6U3M3q8veFFWQvx7NHqVqEJ3ikE5fyKiphFKKLXzqi"" re.none ""QPf0U5u1Do1ng1LTM6bJK6Y4zdAnc2s01Wutd23LHDqdi9IxNbTIagTV6qhq24QrqXb8kUrjUdpU8z0RrAQxDGLmdCKZGznU76JxRBFo4PuYyxWgoDMnQlefFXOItBB8DtzrDOMUIg2yBZ8vzgx8lV92GA9L41PwuTg0TegnL9oh7HsuaDirLo23Whvq2BeZsrbAhcwNle8yI33EGGuBBLkioEKkRM2S9xwtqkoHkN8W3nqabnIOXQhaBcFsJpAh35fd7SlAuWEtufuXnM2HNagKA81E6DuGEguwxsBCfCruumTX786HiRtHqEFRN2R2hrHgtUWSIEZCnDrD8qPKakZMH0f5otrAVRuphoSCSnQ8EAtEwzOieVVQ24XsUFjEOSU9H3BlLRZEcDxMNc3xzB3iU4HPpRj9kytgrOualZg4MBxqRiDcKcGvA1QKzY7WqHxjnKio9AohXkYERMAt0DeT55h87HhHFEoRx0rNEer5MaUS3FxyZKh2JdmF4ed6BYvIrKdD1jiPBryTieSWjitUERLHVvSKhhXJy52Rat3u2TmTv7b1f0TZLNfCtUFz0GWTgPwN9CY9Uo2QiUVHtqNGH10YYUW8lGtYFOt2DvdKePfyRBoS5mCg47D1ffmtCoAAjWK5PbQ2Udh2VBOvOU7XVGQvKXS7UcjqBldZFViqS7DRffDdo9yvuCGMd9EkiXn9qcf7hCV2d2utRlACV4r1UT1y5ma6I2uK5mmhCabCVpmCqZT3D2NPdhlKwa4ZMi6ighJllpQhnFEksMo8fojyPuYSsuXwWq9YGDtsbPVPRIY9uxjHLHjoECfXaS3G4A5TWQ1XVGXlkU0kG8zTghpe9mF6koXbdP2PgIrKsxKNPPWYWhy2qL"")))) (re.diff ((_ re.loop 414309 849809) (re.union (re.* re.none) (re.range ""xllkmF8zvLMg8gbUlWVJYzRVFGjUjuRg3I4YxSlCOxVokyWeoHW430ZljPuhRtNW8RnKdNMSdHTDWU10IbnNgpmCN9OdFgWbV20jMfEtEL67fHA5DPfErz8PT7UAQPCC1tbwHVgKOZNOyoLapa29F9vvaZtqsJxCT9gjOdzNerYr0LqNsdeU5i9UvZfC89bu98lTvMMu6BR231xGgUDaoqlhvj66mUlHfharT9HrBdrt0okmASx2ZfnnXz2kFNUOHh0mlrPqeGixhJ3DWDxcVwJWrgSV0hHFWgpik0EfGPcVEVPlhzCh5D4rt4uayZWopftUElo4GiKGa3T28JFYob5Bx3BjrYdXOjKexFr7gjFjoEwo2QMbc5f"")) (re.diff (re.union re.none re.none) (re.comp re.all))) (re.range (str.++ (str.from_code int_4) (str.replace_re str_3 re.all ""WCoSz4Tco17l4UxT951SRpQ0lAaQod9Mr7QXd6LAm4LPH8sScUuWH8G9OW1gqltKNwCa4jv9oE5Xs00NmYgCR6Qqor2J9qdkqSiJu1Vt7hP7AmLYTxXeppaLQROCJYMO8qqduFqoRZk2lAfAr7yfirLMVPfJAxhu8A05b5yUgT7b29MMxJmKrlfdQHPncbnq9oMmSuYmSS2dZGFnf51QkNKtRKMEUZ1p7ox9xX7sGcoIctFphRQS2GVJVaji1yyPEQUJpDmAjOAVQ577U7YM2G7LxbLd5T2B7rIjC69vkMeSNXtKzl3kaOznC1e7gpFGNnC37Clf8pQj2ecPJ3OWdF5KUvfC97OyXt9FireiIWBPQuKv8t6Rrc6vd0kJqZk1FqeRXPWaWSQtbZs9iwqmvpNwfVXE77QDTNx10R97k0ltUD9fzA6CW90qLToONYwgV8KpbyTWw1sTAHvVa2aSGpYE5wuDShfApmzkKCmEeV2wAV1""))))))
(assert (str.prefixof (str.replace_all (str.replace_all (str.from_int (str.len ""mcstHigGxYK3lzEGsjJsjhZQRLnEVZkSbHpNKdm8vP4VIeKyNMmkbVSM7ZCqCCIBx7sFJMxPaivpLZYFJmQl82E59gYaVzi94KWwyoNNkx9UyKDoGDTw5PQe"")) (str.at (str.substr ""AZPtkbvm62uoHZDfjrMNiPrtkQydn0AeTnwRMvL3KHnw8DKlgd7KC7TQxcbLJQBSv4R7KGoap2tOGcS5afo6nsj8od5uL5QENiOjWxhDP8UczjvdFITTHSQ2fFEY93lLi2LRlqkLoYrxuc7D33ge6JAQy89VU2HZih03kK1ae2PLYhVq08FPC3pNhpnKZ8OeVGLUfbXY6qThK62PLMJ7g4KRFE88XTmbJvh0tgJXoVsfjzyS72l6fkCfmIlmeqYKxoIliKbXUwkJxbtXqSs4qAp0tLq6cO8T6JYX4vV0GKoz4Ed9y2j8lCpUEOC0bDzb79z8fhonEu7jXvLi6cycS6rmWiVBR14NRb24bGm5f3WVxafE7BAPTucTftGIwXyvsSy4aPiSaDIOnTGWOQ8JUvfXUu8hurO3ER3TyEeb16BeMyPDezURfql5qLASLd4UAfEluzuztFPGVESDptWzjJMtF8MBxXBSnxwC5hoUxzYZX9K9wq500ABVIWq0nbCLdlEo1cdF41kRWQjkV8stpTR68YQy1H4QmXaFvKpcKOMgw2OisR0ifR03A5S4IUDGiNDNLOVe8hz3VlK8tscmclxOInXoky4f5c0u05fBPycJLZe6ffXKFaUb4jPliDKbUvPsuA9W0OF5xUwCCGAuOoEnxqRXm5cdr4PwfsEvnyPEpafHBlcL6COwHHi7RVXqVoXSHravEWd9DR6ypWbgZiUzG3FvGPWsvCXnddDY3YrxhIkw2ezRGbYWPQ3e2XBh8v6bXHtrRp8NU8xrvpNbku3OtjMthjN20qSVUPTYAjJR6M9FKvgT6ycnEyzvs5JhFgG7qBt6eUnfdqKfaBkYl1EmS5aXpHjC2h1izbBgYBvWXoWM4iXfFx2beetxg"" int_2 int_0) (str.indexof str_1 str_0 int_3)) (str.substr (str.replace_re str_3 re.none str_3) (str.to_code str_2) (str.to_int ""oGWkkPo2kiFs8ZJkUrejdQRAWwKGzVF88jmYFn3FZK8ukLq4gkT2Fw9HC2QeZ5lK7pDgRxJcdAvEOmG4HkXD8hPJk0FNrxoZ6bQW2XjJGBtEI1UTaXufoSKcjqonjt48alIJe7WYb3H7HZRUHxQqJtenh2A186OfQXzMOHW8uW32atF4Vzt4urxdqQB8JhttuMT7EWMtf8P3Qmo74qubWUSmBkbjaVZko5KWqObnY1taBDJ9aHQkd9pVZeQj3YodJJlCaJeI3MxKp8cqNls3dGuxdtXyruzWIBdUZ2wbS0KvTBjMnxk3U9qvr7gWiaDA44PHXmCD5h5PIlxuthgug9j8QXmrdhL3mCZDQmt3hqeynbipGRpZc8LJRICqtCPG988PpHUh5c6RtiezfTI81rE1TuY1DnZ83wOIG3tYUOxjQ1VYqbiOdCICwiY4MQ6P6mqcv6SSC5ExyYR3sXZEIAjgFKiqjhrB4nMRxJcFrMmHiZLZbHLXmJ7l8da48Elml8fg002naGsScuKsepuonlT9rOnq2ALkX8YZOUIXG4uNSdDUVMHUkyT2yGG2kYo2weJ2aaM2dSuLi3VTgqweQO2HZp1HGTsMeeR28RMer1Y4H94hBylr3std3cSrm64Ce9v9aQMqzA1mlys180n9RoKVJngnTCytXeJNVlfwOKcompsw9WowzIgTqzM4i7T9JPR51NZDnau8yLsb4BiYFCOTh15074vH2JNko5RbbOqHM0bFf7bz3YUzBMiBYncy2jNaxA6VAzecSbyX9FVA9Y7de0oZd3enTnHUHS3lF6OMaJDqu8uLlrgDHEqWn3LSxSmigwd9Ffngl00HYBC""))) (str.replace_re (str.is_digit (str.at str_4 "-738984659")) (re.union (re.inter re.all re.none) re.all) (str.replace_all (str.replace str_0 ""kMSv4CmAMj4KPIR4RWQ5mFosgqr63eYqURtqT7TPgQPUTi4B2Erf6LgY2blakWiZTzLJdHhW4YIlKey5U7iXmnDBPA9y8J6mwpZCRJ1EWJyDRczzNSq7vViFAdTs6vgzfdnL6j2HkErPe0Ux8I0iwPcRV1pe0KqBXYArT7qb1gAzQ9JSPB4qWgpyYU7stXDIHvCoMWVIVxMw8iMcKocimJo7igEo7sgSffA3hff53uxyhw4HDoOogg2vMy7iemCt3QhSyNxVIOvzeywyBQtoX2Z6qjtLo7JdqX6veJD9ulL7aOiiTAF8retiu8hEeuRHipC2P6ME3NlQ2206hyCNgk4390eXZY5RqeMQb5E3WCFomnQOIu4piI4neAreyhzMxPZN2A19NRKlW1DyDxzYuEmWVsfgzH5nUBx1zDbt5f2lTMClg0AcdVq6259yZvFMjrqYizMBZcZGHyKkjX7h0K3ADFXbqMf3jGado9fHdIySyngQB52k4iReZa4bONjnzbI6qCh1ME6xeE9A9NhErpJooOVBC3lXSCUZYcEDEa8HiI1htzKIyz965aS4IbFriAwvfkBp9dpfmj3NWgPDbxojDGzSRUUs0sy8LsAABHtwh3l1sQPedAN59L541W8Y923Mz3vHUdZN6oeu6RbEkYje9ofTTotuv4YKojVSZUFzl1qztxfZd0zUzGHpgm0oVy89jOQQbnAwBGJFCHmoPFa3U1uSlMxDLyo8QEmx51Y59vBSQWCT8qTweMsgvOEXqQ78Bjx02AGN8h"" ""TcotbVZnvv95bnntZ4lXFWaUUwhQbhSwsokCrZA8p8hfskTzL9vcsuYBJVG839xrWgRtgyZQ7hrz1Jj2K59KjIsomSis3evVzkC3Am0mBglzj3UPJwBFOAXX8DZgXvmvwCHMSevZm9zBsc1ql7HXvs2io3fhPzwlhzCs2gXF0SGYS18aEMBLaM2FEw5wi5MHWSmeJj66Hgbt8HNoccvzKhQgFXRHr1wRVysHJ859OlEcdJk9BFp9gilCRzUj2Oz7Hap8U7mDY2aGYkpsMly0ZjgHZRdxwIi0ObA"") (str.++ ""ChxAYRKjumGXjod7XiSHwk1caF6BbNJPnjuajrWqZevFrBijP1n7fTaB39PutsmM9LlYpQjA8fnSj1g9MaQhUQ5RvW1pbbIxc2wXWH1dGjyZpFhSZtfc5UWGNKc6MxOalZt4WVUwGeHsyneUxwmHvvOdkYjKxecSdvL6sCCbjhPndc7FGBf1BdUyWTskdRiReMzYuQKlko66bp2ZxN1Iqkxzx9fz9y3WY1fXwQZ4ygR8vJQ4396JNPjValPAkrPj5kKNbtfwzkMOfxdUgFor4gZcDx81fKNthAVdk3I9YAoRxibim1HmK6kSOMAxFWNOVqDaEhIA7c2CpRWkV1h9RF2U8ITLGTHMnvmvhsipMfs6yVlHUdFtQrCfHuVhqVJjZ8VV"" str_0) (str.from_code int_1))) (str.++ (str.substr (str.substr str_4 int_1 int_1) (str.to_code ""s8k8EoI1IEmltc4Skyis5FYxvusG0WsJ0I4BcLfc7GlJxH0tOehVTR8MjEA3luMVJniRofmIDXE9rlR5C8osBAMeDGc6Hh12hkWm4bGJZXPbdWYDiMafncSDOolp4X"") (str.indexof ""03DxO0b19KnoHq9DU5cCOJnFsWaCC0rUQabbvVuCzoGBc4UQ6Xg5sFPNmCLh01k0KaJraVGM2Ey2JIQ3lTo11DNP3Bfor6dDrb6DCGrSkpqtWKSTIo1wxGjPsrNeJ7nl7yFaunIyRvdhhPCOHZGipIJYfif87dPPuUOt2xgA9JWiwuckCMb6kEhz1PYRIv0Ikg7xnGv7FCloTIw8IDMQvGKT8kzXnOdpmK0xi1jlZ7nUHijxmi9O3SiWZNgyidNSTRRLfOY8rzoGVXFdsD2ehYk389cSDHYDON284IC2rE2JPcTAJ1oTPlgwPowH8YRR87"" ""MDFkJjlQZ3oV7KHVk8ycCvINCJL81GN41pJAXJOTJVhUrSX1TFhxI78XyPb6fJJW6lkm96jnvfGQY9WjPx3W1XjcFyrAvp4EZGzl3gniBMtI7JT5tjzqlqYPfJ6ct4KPBL2RxX1bPuh8MSFXZy2IEKCGFjLAYBeQpGtUITopCipwVguX8XUgRNa9x9rGEhGSdo5DxHvOl3En3YqQ2CPmGVqOT2x1F6y1XbjtMydKKbhtSF9p4c1AivgMJHuzccv3Ksi4AqJ1RGIH4EEL5OJJbxOEk7qt7IiqX21chwjFSdIzFlJuDkqNOKlTJHBfAqRQt3a7yXTtbkRmlRS9cLfvtFddNNk5i9C71Uhh5P3QRSME7iQiwKReiLqFGMWffuU3G9ogv5BqhH7YRNwDInZpLnJdgOsn05DxVxmKyVGZYTcR77kUo4AaI3eDlea7xQc4wQHH40FpJH9Qm"" int_1)) (str.replace_re_all (str.is_digit ""9uM9iFfIvKaNXdrjjQo13FNpQYAWAF5cmfYJ9DZSPJepIfQqXtELD5qTpjijxcap5LTtFEAOf648BkGxXxjf4YchJPpPtvUKbHehDPJVvXwsidwJOUIbwie7rR4Y0h7TSgnd0QyZiOViAhyYX88rN1zJknkCSmdkJKGCGb7Hm7e1wtRSmqFPt6TnQu2mjLKN9Tctwq4F91onzG9fYXnts7ShLtgoxoltzWERvr1a7KgHGdwdcU1jL1LAFg1ErGyXJvewq83FuMHaLLEbUBi5mJeaMC2cYdZyxsSpB2HtlwytXHkZ9lZ4VxEYwyMISlPlh"") (re.comp re.none) (str.is_digit ""JBA9XTQjlq2YSQsu4NObtv24hXFFxh3NVFMQLEjI3YXeOMcByalvRh7bJAtJIBFRrczlCb0j0oYaxlFvmAu9NczhT7mm5QdqfOsfIolBqPOe2vlrv3jFo8FA20zt5tZCktJEIaQqINou74eoXuiRPJQwtrGs3yBdDS5pNzgvvD6ATxmn457GXdyVmxbUVJPext3FlJ6AS49CkLJmoBD0bOeKKJWjZCpoDwmlZLwl1OH7BMakvYPCrs1qlZcl65IAG7TmQKk4G1ubSY4KB4hmx8Th24PgYmOZPamfpLD4jI2qIkE58Ey8Ev25UgJTa1X1TlZrAT8jIEapgeVyJIdLaxsSyxU3QsfWTgT1LVSzhkALMDmsXuIYOiPlR4yBzSYXEM8alIrc3njPo6JA4soVUvEbJTE1npla1pjd9AA6tG0E3lZa1JZkcXX9E3IFNhK5PaJ6FLym966KCHN5f8XDSQuhyFMK1W2od6e49uI9ehu4E3yVT7MhQvKFScFrB1Mya0oFypqwJIzTjstToYgmCtBCulhZtIfCrebUymaU1runoYjZODFadCP3HzeJNhfEXcOcX5dsxG6HzlZnF6qkBDBfUGd85DEQuy0rarPFSfvXzwtIKKxPdH0NmEZrx8Mb5kpdKWqk6UZiMDQkoRmwIDE1fYLmwGkfAUy9ThdSkDLMkNGLq6jBrqyl0h9VnjnByncxlApmseiLAedZPxrbcSwvpe1Gnivt4jZQpE684le0Qzd2oGssNPxDQaqzBvHj3eBkoSjB5IQGQXzsechRSGAjeE2nM8I18aYhd7D7pz00tJQ2deV95RPtVpxiEbEUuAubDubWtCMFZMpFvQqx9cD3h5N0Q32geRjg53eWx2QFGbucnFB6vnRFsUeLbZX7OPAhVQ08Ve2FGs8bxud"")))) (str.from_int (str.len (str.is_digit (str.at str_0 int_2))))))
(assert (str.prefixof (str.at (str.substr (str.replace_re (str.replace ""XfO0PMeWU9GaLRhU6Ag46I4NoVgx0C93dXrSHVPSq5J7QyfQ0Hrtoa8VQgJZAVzlrYLiQu1RnUhelv0xyRi7AGku7wOyI1G0ME7HZmqp4SgHKtYZ9DZsY3txOKEDHK7j9fznoJXi5kSBVAOHurFNChWqmJNELmFM5KU50Fvzm103BmpHgNySy7ZVHmA232jQGGVdgOtEhmxwRwPXYRsjPLVf9NtUYSU2pg6oe5GvpCmQjzqVTB1vWqazHYixVCUAXo8F9vE5PL7E1zXcU0FHZO2QJCBZ1PxTq0pW53rY6G8QfLbr1zlsOjAcUyigfqpKCqM65Ceu7alslKzDveQIpLKfjTA3lNCqBLqRR40p63n8uZnOHrwCI7bIjQC3ojjkdv49aGTOdR8g5vyQC46iaNKfm8V76cxdBwlcuniLFkeXOUEIznQPW5Kv6PWrxovOfm40RAsQ3Ek0JaKWmxh3pHg9SeFmdMdRxGR6vjjAAR0WeZzAsGlZFkdYRHUpK7vQqOHf2kZPcrhtdtI2H9mXyDjIcowgwbAI3JO4pKe9CVX7ea4tjPjqQUzZIGUpurbGoy8dLBYjBfORsfIqTX0LsJUbzYdXCO4idfD1K6UGl8T3GQlvWEb6BsgPwYSoboSnjT6vgU8MvhWNZJPNIhOzL4FvBLSBOYADwjK49nVhqBT"" str_3 ""mU28P8FFeNTPSJUm3T2G1LuhtxyHqFm83Sjz9g0CPqSCovxDzuVuzoOTaLREsL131C0M3ivoogM5ry9Sa5VWIeDoSG9Vr2cBd9zyvYjDKiiApPcMXggxAwTlDYGcNzQYMP2TBcbT7VItAuYOBaJbw2WRUZ5uIWFHftmdfrrE9dBeTYkMZnQCR2T2vGL65iCLou4WRad59WCREQO88vfjWyweD4u6sFZKMMedM4QtZBYCeraJ9NQeIVjNp35a4rfgpkKA7nUAeuYzaSBUqZxhSJPMbU9MkcC2XVbJKXmPJJfWb5LEhNNE8eiH7lztpsse5cZsfUTOjzuZritne3GOb0BitLXmWdwklBwQaamhcgzmeIPi6wG39xZNV0NkEhu2oEoGuadeQe2ZPmHQG97trokPhnpC"") ((_ re.loop 10431 741856) re.none re.none) (str.replace_all ""h5wpeQAJdt1NvZP1NA4DVlt4IiGR2HLZ76Z4kKNRZba5b6QxOfb6Q4kmx77YB8QUZfCn23jvngH0zXZmQ4aMrfkGWvJ3tIMxgLt9rceUpYQoXu3kPkT6mt2FtODO1kPy2JXr88c0ZjqZm6YdFMZz1xvuG2MTSyyZxXWJNwss15o05Njg8cOANR99IPFEY5G9lNF2XHo5Xlp9Qz7itTBoGHYrzgxeN7Yyhbxx8TgSRYM66ihLJPQcH6YXPBURPe8vt43LhQOd8QMzfIFQE0aKcG6Im8I6LEQTAPWwbClrG5CRz2FAMEfumOgRZvkJL5cEKsFTkFt2AOBRN7KnfWgcqH2noZdWexNpMYnH0KYYtuat0kmHnQ6xwG4l1QfVoomfCvJr1V22XyzjGNNLdJJuTAfwWPYFP9MGbMAAj3PWDai7tgYE0IsmANQcHOjZ12bV2DFdvzEIgmOEGcBVX4DZXCqR50YfbLTXhkr3d6qT1IdqvIoLOLkFtexu"" str_1 str_3)) (str.to_int (str.substr str_0 int_2 "963400098")) (str.to_int (str.is_digit ""TOJKfJmfac8kT8Rd979p5bOjmTOJ8hPPnTM9zAvO5jfad9rvp9f0MUiuXs6IZizuLGTtulCDvFMtBRX73ghClgraSOXkdjar0zPLMkQzP7FWSBUI8spr9TdzK6KF8jvbz872PuWGsbiKzyfOAtUUpbYT11DDcwrQETg1VPEejBCFVH6bIfbamgeMNzMfX1p6UvbOP6741TmyehvzXsXcRiYKdhpfiK8d9vv9FVQiCE0LgikDaxQnZsROuoeu825G9teVrjlWfxF6xYDWS7PiX41PS88xdFRDO3wCvAsHTbhaRdyHh8WVPHi5DASNkiDq47CFgkiTthaIpU82RtnPZJTRjM7uQDhy5s6S3a5KUaKPXZRFI2CACt1rUxLbzMZomd4hj9ER3NqCpMZwjZnC55jDaTcq6G27eUDcVolSykPf6L0URIcCW3hVwIexAsjH9NVSyr6Y90PCz63lBKbTUQdYMgnT2BWf9yEmQIk3B2WdT4NRmQvPYVWQtabJlSYr2vzo1iqYqr4fyYsIJxMcQsyKfQbstaRIRgEQNz3239FpaSq0gXggWOr40VetjGHh69D07OjKwM1ITnpctsE6PKOzHZBXxlHUm4rMTl6tP3cTEGx3pi6NOyqvg7dL10rllErMYY2JL0MqjxzKrHEjWtPUUpMk1Xnn7D0mhZaixzBhzHRgi8KWeqKkG""))) (str.to_int (str.at (str.substr ""2QeurUI02YvHVtnXz0uyicjztWRdBpKUnVFj9hRopuxyW6Qr789okksD343HiAxZPrLNZbUFWCSl9uQxiVNHYzpi0gK7SOLsUafYf3c6p8h49bjiypAa8OUgsz2DdYs92tJtpzUY1OalgoMkauqxNl6OIIpc0podfS7r1RYzG5CuJ5eIfZE7MLbaTzbORY1vFInZgfrzS67TGU2crZo8t9m1zqSXeXoPkQLP737zVG5T0p7ObC5BmKUOSB4uAARqsySWcRXyShzdTQC4LYdoXxl65TOmgfo7AS9rXagGtZbaTPMuUX6ZZy7z5DdgRhM5ShAV9nMmRAbULfbwjwbf2rCJB462e6jLfC6sOjrcAikt3bUasc9GJuKc2asymjJh7ZhqA8bYl8JjasYBL8vwwOf9BbxjlkpNP2shvvrwJIF9UzvtrGJ1iDtGnu9ELymKCaFrA0UBmeSTESus8ianaiANzzT2JY84EchAOuSHkgwwvCpslE5MBleQFDtmKOGQpT1VNfv9ZHWiEE26jUs6Wvmdsk6Nw8RyIKZrxWJXdX9avXuYW9X87VYP39zxiqNVGTLS0GPStB4mKFVxf8T202D4U5zvkCQ7S48x60kcITDpx33zgribTRiTmtkYkEKke9vsaPjH6pLuLdlBDtV9s8Myw33PWLFLCYkSKLNnvzlq51kd0UViIfUp1YU7sTbDMK0eJOh8S7hvl7SJlFz8rdd669ERomjvrf6cpN6xV0aML7qXDfl7QhRjA17gp4neDlK5d5U0OoGNiQjc2t2arPsntDF7wQ61exVTxHpgSNpdQEkzEWau3qf5Iap2CNOGvXgnl5wCG67GauCojDv62Ub3MOF0vlfUc9qAb4jzBHPGWbACGJcmLiiK2gxzAx"" int_2 int_4) (str.len ""hPoRfutdcem1RAyOul5DqMAlxcXkRL5lZoK8NxWeiDRb2NNoGJewTLPRhx0oMkSstqozdxsbYEc0YZ0Emw2ddXaRAXZFdLWeFEWcYnU5Hi2qVrEUNEf3mkSYuEkGqABTbhXyLBwG242izOGeDA0yVXSCU2yOo5HKGZjOcEmIW9pXAolIVI2pRG3J75CpyBPrrqfKontY2vbVimJSjkoJVvWDW0j6LYwMS88mRLSMZWIcZ3nztueGzwnLgi23F2bGiUkwdLJuO61GLKwdoWwxxY"")))) (str.replace_all (str.from_int (str.indexof (str.++ ""UytPaOv341eoI63yRMnYDMyqE3lIfWcHuFBvkRm9Ox522GNcsZBndWX95xddhEAIIRcPr0Q7dJlT2ZFPwUdBLLwhZ3qQELTi6pp8dJdUww9uFtWTSwOl5OnNapBFH1oD7pl0ryjjyn7DYNUbTsKdmCB1c9XNyRr7cOTscILfdJsgNpTyfZdIijiPuZNIgGdueAetNM2zk3o5pVPS31DQp6u5KqvtO9daGTnfiWRhUCmvJ2PBoufLx7jdhaTerG02Th7PH70XBjMKpPrBFkSKPDYuadzFmVX1rtKG1bzRGUiRSpNkAVQapsfwAvLDkKikayzQXJWreU6by32NLNDI6seREPJxsizeKUUA9ImvSa5w1O3mxC7Hu1hSW2IQqagUYDqTlGnKmMqgXMtu9wwuwD0w4ojNop6RdM8rB9oXgtFAanejtf2PHvburpPXvYq7cyunlhnuII5sbJOQ7AJVGQYLh0RTA7dvdkC4m296YdToZWnyY8KEGdMa2UWfh26hkGkQI46"" str_3) (str.replace_all str_0 str_3 ""ZjMEFmOJTEJyonkwdc9SlLqzhpvJBKFB5gykJXntrbGLLohiGx0XuB0SydpkUWZceInqTMV5Pgjhcnk5qIh"") (str.to_int ""okssWD3E53VFfua2BKdfQMAW8hZl7QbDARbzXHmGhcOPiLQdl4spNX5Q9TKi1oZa7Ukcx8em4wBJdcZzjEMpYeAzMo5zB3rIodNlIIKEXiNXaMxf69cREDHADCUXyaYEAUrVkjSv6P5KjSCr8XMEgcvP0wGSqPQ72RZbpBVFLv47Bj2Al63WaqlbzdxmOTHoF7dEJTG1S9F8iDAyXhKliDIqQMO5mlZmcnQx1eBr9RCAXvqM5ZX3OblU0OdW2guKJBhlGTQqsRuo9jymI8oRlU3fJodraKUS4v4vqdmoxaXwII8Tm6UvJxR4UFkHk3gDilsp99L2BLCilPw2gs3v4yRH3XJGQAvuNYrO3xLCKVhBdDtwj3oia8ZDW4M1tpFDbEJCXfmZLuMm4uwz4FV0yTwOriqJ7Rr6ATeq2SmC1Rj2aI7IMvKo3ovAtl5bMcRm0EmeysfE0WqtltDVfPhvnzX0qb0FrAv7DnYSjoZyIxY8l249iu6b15ToPL6pYZEE9A6ZNeYPNbdO0lLV1ggJPQSWTKqaRBbE5GuUpdLyEo3MdKeRikgOi2zKtiSAZDis3sj99ahkfycYyi7qHMSlauTsgW2x1iHeEwXrOEuenMaQBYIlGFcRqbHv3oAWcll7s4cKvLOCKbQ0iYpjMsOCFRlhw3phQXVmBx4GnNh7k7rl9qslkey9MPv0KALAKCjtRiiVjg7g6P27UktV1ZiUQ1MnDptS3Cb8nYhNyOCQmplh1tP3MJk04FWxdXTjB8uSslIvbh4G0ZTqr9Ap3Qc04tKSEVsIzXeEc84yiz6eXw3YrS6zfTTHLxy6UVhMeblv""))) (str.replace_re (str.from_int (str.to_code ""d8zEiQEDNqpfAdj6KeF6VExAkgjuCPyAVuo5YEFOtjGLbzbbUU3VNM7TjGaIbNAU94DzOIrhRb5bufLNiDM4wT24D0C5FC1rIRZ3uU0aM4T5Mmo3HFpsemzNxRLso95i4z8xjy2GtyaqIg1j1PGwpsHCp4D2wTT4K3kQOGfw8PvnUIhq3cVeEUfb1lpyAEujNNRD1AZhkGRdHVSuUWPWRTHAFPT8ho2r2A8RTKdzJCD8DBeCv0SFs7fGL9uoXSUhrM8hRYq3GyzJP0EYvGGf7zhH2sCIBbxlOQw1ejG2nNqFyNKCYjqI218IpIoz2BRX7VHlGZS1e7FtN60VTj2x3RQepmvBVQxQlwD4PWcJlmYfnWNudX4GROaOkPxrBUsdsfvUK0YysZZuvdDEH65fczH2f6BXvpK4OrpHyol42TihyKTaPOx4ltmYVB5oMDbfE8fhiShYyFKdBdGpnIkw7trm0G2JZRDpiHfycrzrvjUfo29vkBTwki0m4E3MMgqQj2eiCl6GSYsP3I7HbxlEmo1jL1mYOo0cj2GpFgHKahl6H6rW3V1Nm2nmqnzdIuwGQPtynIXCQUqeLS20TYFYCiADhEEHvGuolQDQ2NuOM72zzPZ6NbbDXnmVbu4zRhL3tSpCwIY0lA6NMI1mfDWXMejGZZjITNzrPRnU9ioWPX"")) ((_ re.loop 108122 202748) (re.comp re.all) (re.comp re.none)) (str.from_int (str.len str_1))) (str.++ (str.is_digit (str.from_int int_1)) (str.substr (str.replace_re_all ""inSb1kz2AS2Knp4xulsOQUBOr9wFwWtAxSZ7Ou2QEKkmZ446I9tWSi57cEDWtpt2ePuy567rHmITo6WdpJyq5MfqtFzzs2fzzw0WF78axevEFuvXayzqnGpWZEpuVIVd9egHD6sjWNWWYe6yJAiuauqTahgB5F4pHOFsTKgpjuzFI8op9xrQzbXG9213mSODPJKz7hINkTD8S3JBlA4k4eBmF7kCkUnUjrMQk"" re.none ""bODyvCF9KSx1KZi6uF03RjoXTkwD44sPTpra7pEBnmLR9xDAjxc5M3bBgm54e3o1XCVmO7ubSSEVdYbVMAcCTWT05Aqm10TNtAUXagSGaRJPWZBA0YbQwLtjCc5fOHkQrEoUl6fQSwSRy"") (str.len str_1) (str.to_code str_3))))))
(assert (and (str.suffixof (str.++ (str.++ (str.replace_re_all str_2 re.none str_3) (str.replace str_3 str_1 ""odOVpnpYhgocg6BDaKC2zlSwvOGgbuu4dDcee5xDT8SQmC1R3YmAMLhhoNiiwO8NLhri6VBfBvb4qLg1EwH2kHUSohSNVk2ML9eZvMTzuBKfOqikTFlKjmLTrGTwrBjqYaPp6vmqLUEXEEFpvfeW5DYW1EaWdh4jsMIhyF5Y25wo0zMG7ONpSsb1zpM7OmEoAsRf9uhF6DOnTJ7rh2p7EgsG0ZCHWj5GsbmZ9EijdJVX0pbott2ZCsIlJFCV"")) (str.at (str.++ ""A9WZL3iT4LXJM6LnV5ExRdwlzy1ljo2v4tV3hwAZVPZKlKDTIJ7kvr5zFpA64N7P23cI5qPA0FgNPR6dS9G3j0dIfTsYIv2qrhzjIMZxgiJ1XcBzzU7gDMueNZGHKBPAhsts4g3xttI2IhVKbMhJASu8Ehg1IRm4y3ijtZBDDPulcbjqFVd9M65fOCTGBDqZ7s9XLTBqS6jC3A0H15vYWNsKQBlcJMi84JQyZWsR6JvG1lQ43EBeZh2X5mX698nVWvwrP21TzgbpHuqG7hrLxtcaoknFLmvwX9M4brWX4EOtBcir2RZTrunlhpBrvghxB4VLf4jCBkGAHc86ZQC6Zkre0pQSKXuv3wM5XA3WErroilGvD0nmcJ3Y2ELNpY7Q170NJfXnaIKkwkgwITX5yi2P"" ""wE3P6VHWNMYSN7V2h9KYNFtHx6vc9xcIn9fcBmjlnHatkscH6M2DYxIDzH7Ptuja3skvoo3oZ4F1dAVI8dsBugX561xu3gUw2vq5Hih6TOxIu8WAaozaShrlOMhmGsquJln3GSaJ9CW5iQSPeJgItPcT0EgasxhDVYHeaxE8Y57IhxXZJrKWlkoFmpwH96KT50kKthO8mNmVcdIElRByNok8fc8uqXT7WManytEO8mGFQzEE5LmvSSeX2MZxjAefZSKQ9WKwWtIPOj3kXCCDOUtZ5MbxPQKHoHcOmMZJaI6AC0niXTRn9TQRfG6vBytnQAbYEVJw4jCwtZnyrSOFBXDKDh8QL8A7nM9vqU47zIvk7JUw5aQjnxueybAbztfStrznwBn3qDEZkkiZyLDpV9Yza36RLjDwMZ8zye35rFPHOpZqEzvHxSoMDLdLmQipwkFLgTDkHeqyLmtQg0GHVFqKtd8hblqXCRCltYOuAS3KrCBRn9wvB0XJOJW9oZ6cM0zykd70cad7wBBcjYAobgHAJPv8le0pMSaYwYJJGIWz8DEFInkOA5rmICaoD2tIWcn2ibTLvh5TYdY7bHOMiiakEFKh9LGFCXK8AiA3uWyJTtBXokWkqiKpJtsjVGr38XpWw9g2OQ1e8Tc5zYJ7G4XIT5lC1Ph989OfhvwvAhaa49IxkJEw6ZwRO0aJ82X7fAgOUlF7zQosTQWdsBuWeOYHegV54LAvpgvc1zBM90Q0h5qxbNdqJ07Mf7nDh322eVDPGE5L5Wl0DeDFAOawQI9Fs68OY54Tu6BEc6JyoosN0GORfmXsPcmfSsyT42rZ8z9n1kjaoFllhtDd9TYJV1nG8WvsaPZqgQCttCXpsfUtr0y74ZRZE5bA8ScGjOdzdXG2hVzyL4PvxcpL8xow4n"") (str.to_code ""L12nCyES4ErpzFNI8tmmqExKK6SowaLg20ZMMm5WH2JDJVfgrJJu1ttiqWxCSx0GT62Vb5GTEaOO6gUaz84wFOnFeXwhvnTZjWl0EPc1xfvO9sV1RsaGfDL89F9bxqMYsMdBvW2V5JHDtYyBSKErL78Kg6DTxHKsXWbdQlO5erMXJXFLK6vEu9fqJ042Fk4dlE7L1FHZJLUoSD5bkZPJBmTt3DgKm1bbCGZu2MrMYIzCtdIyU44XoqcuFxw62tjnRJZ2lGSUdfQJBN2rp1nyYGnaPI16mYRs9Je4ANAkgVPGb5unZQd7v2elK2Xd1PnA8afkxMu0vwhq0BsuHIYXHpcnJji7JRs3N6Ci7GKezz2gCsbBBHcawC8HetBFSZr7AT3m7BMriNYUJ0ynsdjYN2H0BYDlt8rzfYucmjkk3piewWidLGna8lmnoMxJsydIb1aAdSu7JPhoI86M7kEdMJyWZWT43YXGhpfVS8Rv3shRKMeLNg5W8bvXIBWrdVUcIlZmN7HihUVQgmxA2NF8blu5TU5gPZ4eRoqwHRRr62IwzRJqRDxBiJA3UDW4l9isPXGo3fERVtM1h8L7K1JtSxUjuxCwgARqeeTY0NPmKLbJRd3alwc0z2oDGnfQXigmcaGZbsSalzKMQlnrNIcfSduKXDeDU3Vi8x76Fx06XGht0xLGoI2Z53OvAsycKnUpRa53PQ3yqW0BusyxNIlcfrm1gahy4oHLxjzldqLGcyvE8XHX9VbW1jmLWVUuQZIMtzXuzVuZjEebtFAI1tyxe0KmSpuWezrwqv73lEMnF3RJ7iKuVwLVmkHdC0jejAqZKrddLJLcQTEa7iDdouUqkajRFCzCXRZmEKPn38lv01taB3N1cT0fg9uV4HyIxQNvN0apHV6Eyo5iCDkSqZBxXIpKTwAXpX8qdkDd""))) (str.replace (str.is_digit (str.replace_all str_1 str_2 ""WXmqJSqh6RhJD86SBA8EjStR2iGEn0x7S0OaC5MUszjW1M94uYoZkpMhNIFH7CQgHPk7yKcgEq49mTZwyPxiIwZzoWBsnCovdNfoYYoBgtTXaJZGDL7MzyMLk8sxqzEqJdlIy723kQisqToV7f0G3LihAuslJt3Eg1IPRhGV9O0FWxVvX1zngNq2SgXl9CCWMOl2FK0pGaNjB2ZWWWVc0my4SlPOO0K0NriHZXaIjdyVWOat2sGqOlIIGyYE6NTLxFGvMQgq9rxc4Q0Rtw3toB2vy0NBycRFpaNcZLUcdOit6k1hCrOlZkpgwxJXWZjus8yMagDSIrjsZXBlfl5p95VtgpqheSpEvAapp45hryI38ol0QLNEYMzF6QmxE8xq42fZPzc9XRdKo38ULDcJvvsodQFRwC7A6QEX5Km6MPJWq4EB3wqXeX2teMMnkPSABXcDK7FNXTNFoqaQSXJrgLx5RhrStWWRjluatVDsFNJa0B9EKMSa124upk9uF9kmU9"")) (str.from_code (str.to_int str_1)) (str.is_digit (str.from_code "149230620")))) (xor (str.< (str.at (str.substr str_4 int_1 "747683901") (str.indexof ""wLbUAwZg3kT6VrRZZkOVNzMW9oCBC6U9W7TJEktmU5Kbhlu6FEMwtnRBMM3hQblO8ECg8Znn3LljD9rZyzyyCuKnflr5ki5UFY0GUCZbnVjwWdheqIZFZlduN7EZ3IHPhk8X0ZAAUXZ9hOpX2JCqjkL1SwRSitF6pmONLPwJJ9rUEtFZ4nB6e1Ce5X5AI5KCxzxdjyMBBpOOh6JNqIMpwIODQzmEhtsfPgGkIGRGAGFujxDkHRfzfxHxgvFLhVgAXEm1Ks6bWl3MwqneKtImtypP90NM9VQbumdjDkwkoC7ueAR0lPiR8KVC7cueCjP2mhK9CVY2JXfGOCjHKXmqeUQbBJqPpN6B2e8Na4RVwxwqydPzEiUIo1NT0MZv2ktpuVHRmADgwmlFNT7fnoFOqrGdvB9yhwky82E5DUlRVjxcy6c61wP9UYLt462z9Mu637LYQ2uXT2NfyoQ4f3ogXf2qNjKvOODsVYYryGXtznolRpCcKJyhdt39iG85pSYa0xk0ZIwDqsHpDRMT6K0P9xsxSqWurfLgBnlmnqDq7svbYI4LQlUS7VFkHxZYCsknNXj9z3WxkDSdYzuJVV7BK7hVGi9r3mdEXxOd896frbyUfJCwFKih8V8a0Lo9NbZcFmzhSNewFDrPGSkDmlmP2ZzsiNftdIWIPTxkj9yZVj1pZRGjtMqUyNvrHpItwMBTzAJBKVUdPtU8UTE7DUA64SpFHlwoHcIw7a0EzzSNKOxSAR9Hv4ary1R0a1BerKEttaFQKOUzNgqQqMWrhXNybjxBEfbKVntHkATjLYQFWw2XjkHl1Xk0T3HOgCAVgWwu94npDEY2RyHp8Liz0veOYiELatnrREfKPgU8z"" str_0 "-996065902")) (str.++ (str.from_code "-971800095") (str.is_digit ""l6JONokoa5t4qpkzAnvixge6vDVVI01gjtTLXzWdUzmVYpMm21KauF5BipaJK63qh35YHqrmLSJJLFSe1Ns0x8t9iz0WbJVS8NSdxUNwNvatyd8zoT43KWoKeqXD28zF2TkmGJj7PaU3hmccZ10E2ZHSNQv4VcFghaOLosZ61PkG06gBLDgu9C8QXwU7kjKkaHSXctiMKFD1T7ysdNEN5qfwpBKEaXmNCSa7Szzakd98LzHBLyIHN7kSkQCQYf3YBW""))) (str.<= (str.substr (str.from_int "-229615574") (str.to_code str_1) (str.len ""3taoIuENWFxLnRYakclAvImVGCwOULXgA715dfulLlf8QUIht5BFXJ4DNWvQBFkov758XOEFUqUh19IIms1aD7CMNliPAEWUFRTGtsI91Bh7Yf53XWA4llsdZ5Tl5gBUF7aqBHKSsXXdfcDCgnm6Obt9kAvk3YkMdNQF62ZAp3VdDa3cconQlCHh9YQFxWCJMDNKDclVGoD7MQ9dSg2vRRTVX0OxhcTOudXt8Ttm2dOSfSaoTyHkjPLKOTyGvRROkaHW26RpXYxNgPao6P9cycDXSFCKbklNoQdEbM0dTUAFaJVApP87kpUNXZbWxO09oH9jT3UsG4lvrvWt0hsKYbXvfq5GpDphnpFYRM9Gk3a5jS7KsrzEXaX1Y9LvrgMPpC4f79P2zMviug4NjFzJpnqZHGytl"")) (str.replace_all (str.at ""KLmcGC8WSGRuMT1845vB4eEHMcQQtW44HFBiaucrPzy1m36mHNsGuAyKnOfXQ82YJ1RnXBkP3KNFzOzEQnJnDwKUJaauuAyvfc20Eb83DoBUSslayL0QlyeOw2JsvhZgNx7uBKEtI1fOMbN61cJ5ju4L63GOBLIWSOoaDKk71BEAik9EjYNw7wEar7N0xRlfWBnyXoUjyK0XzlI0F8TPJKkHNHdk9SNNVtIMYAE1ggqEIvMJrKr6fmtl7B8zm4YhotpxCOiNyeocAwjsDF1mWOdGYNfxxXBeBS1qGhEecVHngXWwkvPMwPzdA958zuM1o308eLeWtZYU4iDMyZ4jV8z5CSy6uAJJgtKnujCIlcMDIIin0ltAwM9BaYuLSmefuz62NARb2A6IWjF7IfEtQ4gmn4nawDwr051s8aVpPLWT6"" int_2) (str.replace_re ""E1UhyDL6J5k6xM8bm6wVUKIqoZ3ElPAxActpMlNVfE2Il3GYoO0wTSF8Nxy4t8ykclq2NRVZPO4zy14NBHu1ib2UfRK6UhL4xNZWp0dUzv7EIUrRFo5PyQllO4uoLJ5kKqo6YO83iDWL6Fkj4GKCG68kP9k7YTOYTHrDil2sryg9bjWq2YhGxXFhwdv"" re.all ""CMEzGSLGKBZOLRtSY2jk6hEj02uC18avmZcDo3FGCggR"") (str.++ ""q5pXwoMmrv4ytBw35OW0saGhwrUhir4iNkCGNdaNY9pnSKCNCVSDQxYVV3TS39rVFWL3Tc6Yr6Bf09SG9vCfhMlTYECjqWOi8CnDdghDaO8WxJz5G3MB9aFVP5Jb0ovWyn0MoGw50TbWW4xfYXy8alKTBPiaclvVkWMt65B1DuNP4xLnDDQZES49UVw5o23ixXBfXIb7H0NZqM8hJvHilWLfYx2734bKrb2qHbqw1iNRU5xT28pJ6Gsc5sl5XJI137KXRapZD0xOaP06RXpBWms0oatHgdvZLWa9D1HBdq7aa3TnvewDPRL5elspMaAvfPld2EtLUeBuNlpEWM13RscmTPG02tw1yZlojFGr8cOaOwhu3SsIWwNYkHZeiS4NDbbDtm5ZJ9GhD0RuiJ52N7dgAFjyS9a18Xabz03Ww3ZjR8pJ0RFRi4fNqoUtpidu5iQElI0C89IpUPAYCeCFrEy3xsfnXFxLzx8NvThrE1o8rMo2EUPP4gLbnDlIQp9uIChMNeJvzmOgcCe141klUu2musZa9LlCYULb"" str_2))))))
(assert (xor (and (str.<= (str.is_digit (str.is_digit str_0)) (str.replace_all (str.replace_re_all str_3 re.none ""vrSvoqNcDWOYzTXGKbr7x4QiSqQ8twCRuTQaguNvjSAEfeUQd8UuA12JAIRAus2QQTIgMbP4kMjlr3T1aBLr76EBqBaCktOA3MCreFd1bkbnpvONh5QQ9qVqSSiujDhhdCoWZvAhjylKRnEp2O8e5WtLhkFGIO2eyjzjzDATb1f8f1iQLSLjFkBhEsTsYkAPRJBzk6aKEZ46mIYFGRM5CF3tMKoucAwrSQKbBie3CDY8Y092fmxVPdlgl0eXBiBHBxKRwRXWViSo5Fk1fsojFyvKSBYOSc6fzFeQgGpNGFVX5924Rhcy6RbtkyAPzo3ZKOz2i9nJ7NjlFwEUbpAwzTZa6xtsuDTRA6lVqH2kDNk5wLsTp3YaNLIh5knxOMzqXp8zwti0R3JmqiyZ9NGEVyMn5AIumKWeXBOyHOEFoFwhh08IwVyvOuu6vSwIHXZOyaSsXn1B6BjjVBc7cW9TtjEYP73Hwfrh0chd64Bdib3qHABVPapco2edzAmrESecZdpuXPW6moQ8YOVYW4RGcFTFOqzIvrif0PNkfkXzCjrF5bDIC63zc8gQgxitDQdFYn60qU2wZoT7sJ2OAPpIgOTANzLYGvJECyjVHIr7wOmQ3k5UhomZGyH1v4fVlQqqAtxHowewPmIVMCkHr8YGbGgTQuquF4Rggs564VFmiumiR8Jtq0qyQQFreYybMvkyHzuIQrRj9wViHJvK7LRrhN2G"") (str.replace_re_all str_1 re.all ""qeTK5K7Q13ON1fJZmaXZzuYE6kfIQKrAjbm4K2WhtVmHin32mrfwfFwFw8GXlZIGtn3xS6ESXlCVRyLEDr0laQ5bYnAweclB7ZeaMbWfkDLTfD9tvpq5WlBBf4t41masbMvTdbAIxct3e0vTAC76JFfF9Rxzr3PbbZKiFMTBBM38dfnWqu9j02I7GBJif5ZsAVihdLseKSGpyAbDKks5GrbSQ70VqVzmRjtN9V8KHnDCfzAu4CluLRRlop0h2QaBH2IXodYcEK1LxlPmAHUBrzVtHwq1X143KvGPYrNyOf3IKqBUUTsvIX3DVZUB2E128ZA77SNFTFBSOI0dFnPxbe7F0NvIYStfidokpYwynEPLgsQQZWgwg9Ed0Xz4gsSKFOcZkyjI1KXcXmUwuS7qLXexsniud55FZ05TEhMlsnyGqv40xEyweg50b85kbuu3If0m8J1y9Lprs10HFHMinWde8Y6hUeiuaLolXvosGYmXvsYVAKDN35QojaXu4MrR6w9NKJSMwQZshVQXw5JFwrFuoZMQorGofVGs1v4qDui3l3NLBl681ZVAyVZr15MWG9YPJzpsE7o6xXg9jcWzu5tjNi2YLsYifA9pHaaG808afdE6RGwDkauTHaKcuuDUk3c9nuYu1vhFfBbSSdNLmppfz0u7V01W2s8cYkIXRZJU1RO6kh7JpGraFc0CfP6hRWeALzrtZeNUhT8OlJmGk3xpEvQwMxuBzbfStveO2icGL9WQ5GLEMdvGnzxC1TZgtzcEvvVTotIeNXH0DdGzQ7a6oMP91eHgBK3w0nW9gJJlqDdIAPTiEyaJjFyKSiHFlooHEcpxZuXhcgWVYPWqZaSsXp0e1azIwg1SatWXvCIhWlePm0kWTznQRNJC4wrnXPucDr397JnTTpwYob2n2qlep"") (str.from_code "150673689"))) (str.in_re (str.++ (str.from_int int_1) (str.replace_re str_1 re.none ""mi5it2rKxYhRZz05PLvuuXeCvgtFJJaBNpgJPmP5iL10HqWkfC08NSvUTwRduDA6zeJiKPNQOCFjumgB0FBGM1LlYD9ltEyFykClaTojU8LMZePSnTiVlIAucDtVYtBzkc5KWHlXFqp5pwahaH2KarNjvP5JqKZDj5TKXcNKZdlreZKO7hFadSW7Feja4SiekyQbndSEqGJUeXV31b4z5vEXc3cAMXGMaM2wszDUu8fo1QvmTZYLnUzMX0Whlumic9mKZEA3mXXY5j2wyzWzZ465jqJKLc9OL7B2pV5eXrYWLIUtskAt3HgvP5hTwC3gzWnbIjAHNB13kNPGnhJdGcZzB0eftS63r9yznXQBwwQUvhS0gpKIu9AMAjtkhLB6fxJhPZNrTU4KrmalIKFgyf1zhp6p781hbMalVpU0REE2GZ3iY0cRCK2U1C2wkgtfNwfjTXzMW0LJq6fDuasGlbXOkay5tI54anDTuaI7zGZPhfCZkybQJDAxCVCci5dovn4jFtO2iDLrOVZ0rzyLlovloa7WU7x07BJmPwJSsrHKHpmRBqk6h8TLwrzcXVGkV4yNh2XeQUqk9eMV76cV4bT91js6LkSW27ggi9tF36RhSKxLQIg7HPWrwckjoTdSj6dNuWXUCkzkgBMBEG87ryYW2WZSBhjJMt9DjDDoTBrsNkqW9uCeTI4Yv5yGlR"")) (re.diff (re.diff re.none re.none) (str.to_re ""jHff8uJkrAQtB3OfDbduNnGt4vYxmaZXp4J1LzU79N6Qw9mxoxvRydVy02fR2I5WVGMH1LejkJyvMzi"")))) (str.<= (str.substr (str.replace (str.from_int "-883957676") (str.replace_re_all ""3TClf9JS9YpAUQKR6iOidK6XkD68LGKSkwFFDigiuNXkk8zatajbwW1axECVa4tGiL9rEmNT9xb8smOcYw6SuxOfb11meKK47l3XPUXeJOODe17MR2YTsw8OlAprSYRh7s6p03S56XzSEeANvf715BxG57eXyt9IHJA3VOfN0Sqew9nicSMUb1XZH43nyeF8hHN4ytpuuVL79462MKNq7XtcLzNB3BRBYQTGlRvDLvDkIICZmRgYPCLpoNdRTKf0YkgzWs1nEZ29izV2OkRXOhKKMYL14K4AlvINlaYbvDrVDIo6zntuVPA8KC0cPMeYfgJg0UdYlLxmTvhrys1L4YDX7C7QQ66lXqrpgqm6WGNA1Qmq5mA659bO2StTFzALkha2Cz8zu23dQIp1BCqxG9qdKZFzo4lHZj2SifSgfk0D8ky1cjygkFrGKsgX6Y3vWBrUfDo3fWXFXwV3OelgTM4UgvBAfkny"" re.none ""bVY57hT7cAt0gV9wW5W1OVZAFCft8HfzloTLvtg1vUCSQm2q7cmvcEOauSV0miNlvOS7jvWXwRQcRlFBLXacETPt84VJmWJxfvlzatYdQTC6spZ28gd5VV1"") (str.is_digit str_2)) (str.to_int (str.is_digit ""D7e0Qh2c3SQjKY9UmDO7PuwvisXwcSHwN6QRFB5uJHqVsMfuurtbIpzD0V6"")) (str.indexof (str.replace_re ""19APJQL17mFl0ySIOuKEwnE6cckjU6LaENZrKOWdIl3kwf8HuSNQbPmq6XnBSLzbDjoGvnqTNxXA60RmtO19EivQAXENaCViUZqjHyJTIBhTO6Y2pjtOi0q3ewer1NaNRxphE7WeF4hir7KJLvMvwfnzYDM3o5CRaCclCVg7yLgqDyZ5EETevNlua9lfVYJyP1j8DfoLSHeI0214IZ81Qlqn3OLL6aAJTH4Xhp0tdrhnY7BloLE73gvQy1xxmrsVg2eDOOsUcUiL3Jy7GxYXMxuagO68w3ozenO7yo4iAqVOMcyGlJCVUaTGzXIdnzx0nsEqdKyU1S6XxZEDv2HOY7wXKLn9zdR80VrzCbf20z8kWEZm6fF7Cq3nrPaI9z9GSlVxGo0tFBAvg03SoH03B9ywkykbyoIOwK0UdxrqjTjJ1BVmZdiCbJz0v43dG0mJZ8XQdEGCLABWxHxPzfMciEv9SXy6JBvjaHcuCRCr4IuTgqHyY6AADv8h3lzyvr3sHRioGFqFpHSr38kjreHglzdbDNQ7MRbmPZ6dJvi6MyCcM1H31O7HvjMtB0OzcQ4Odgr8io9sZpf18tAG7Ldfb14gEkHnFynPga94Fj16XO7AVkMeWoR1SsIC41b4PlDOQUha5Erlw7Hgf8fGpAb9Rq8Kcqwh"" re.all str_3) (str.replace str_0 str_4 str_2) (str.len ""ooUu4giuCDf3MRvLuFZcNjZoVfklnekeWpBQwQAFA2G9r76LcmHkQcQNlya5NzJEZN2FERRwl8vRcLqprDWhqi3MLpohrzH6kqHhSr44IawS7Q9s2rSTjz0ZLA5w2N8sRDZLt2elazQZM8JJIweJFLsnAn8xNqEE6v5QpY1L3jcRTKNCZlQ4Bh0EAspibuULHz8V6NlgsKPJcXNUGNFoGPw4rb""))) (str.++ (str.is_digit (str.++ str_2 ""JjxlBWcpJ8h43TriHOmPFKhNGx654BmhzCi9h9f2cds69dAKBqjzvQZVG7oFQ7XFAxnRuqYjpA6iyTAnWNLuMcTfjpwO6FwAjsP4vuPoVSgkpv44TRNQXkfsl3YXHk3WVANj4aN5VvzurPk7YaPeh4pWj9ZAvoY3u9YQUNYeadl5zbsu58DgOd2aITwUYrhTBMz7C5RSZ8Rrca7Dkmw9hAMh2IMgPZqZSmC39pD10XC4P7kSGPzezhKTV3jPY0Y9Zw3GAXFiNcoHltGv1peZk1ilT6PRi8WLOhVYcqrwl8rXOHeFhQe5t3y1znTUP5Swh3ULXw1R1hftVBqeoGI6eeorJAVjbdU6vA3sdERCjWshC6rnDtCJu6URFR3DZk3jcrr3WWlT16Lv4fDjrGTOQmG4Sk2GSWCe4VGg1PoUkqR2VmdoAkjsZ4ZiaoSG3oR3uxzK8HvkEzUQQX6zj8clqh02R5x6YZhNe1joTCWmBoxtL4LPjpV5c5r99Ez24U7xxKv71jCP8eV195ujUmIhP5x7uTnioKX9CnOQZvbn0FnLsLVacVTVcjaAu7oiY1dFQpsbbH3b2ShlASkvSvoEia8QE3RKZCSPfz0HF01CzcEDiv6wg8UHBJxKuUsND3lzzPAmWRjaAzudDnt1h3AkahzzNeAiy3D8xVoYOLxrVmL4FNLmbL2h6rFxVL0sCmZkByL5HFeseVDINhiVjxI5oZP5UaDL9XmRdAsL3E8SyCigblkVLV4Xi2v7cuHKX6XqA3ILwiCdigvWos"")) (str.++ (str.replace str_4 str_0 ""z6HMbQ5ZN7SBxhtDkuLCganeXft0aKFWJzjqBtHNJv5QbR65KpIdmIjx0qagWv6DnodRcZrEjoOt73c1umtURLowgTW0b2lLlsYG1Vv4BtCoXp4edYrcngGxIj8LeRyeS4cF6bOzUskPRXqk2nCeFdMYlQGkGwJEcVumsmZ8vsET2aaizrlm0tVnwl5R9lFexm0RxaBO574QEEoNPOtCh4KxlcQ14xKgXZhk1FwLkMacuYv0oXPpD7NqxaA59ezTrd8XbwM9unTkvO73zuQ8doLGTSVD6cH3ALDqCJr0pJPlhT8pDZNn3X9mydREunAnp5wSZcV4LvBdUCF"") (str.at ""R1NzMNyIEfzWUPmXrOBVIP11whv0pU0LpQS7vd5e1jiLtYcpM1G5xTjtcmDa9MF8k0nGiHzP7bmvqV0bOaQdWHeO1zNDvuROy87mOj42FRHNXqQmVIs5sAqdAOTIW9lGuSMedizYfJkLEostvtOh1HIXfgiocOquTImuO2RAxJjCN2sVL4xM6uLmRgRXuZHW9RrBOmlNnIpkSXFEaDIUwdh5hWVHGYjDeHOVNp8P5xV55yOW2WYmX6DvitsRTOHZxQyvw4N4CvCagGHwKLnMJ95jOG36VhM60ZXkib9QvkBhgq1UENSdaw7nKafLDTA1sqT2djNgPmDG3Y9CKFEOwwrUzlfq4FnR4DyEB9hQuJXhwGifIkxpvIOJCWDo5qINq3HaSp4pErbHrR527oRh0WvpwYAL4cvs2kMLDeP1wTEKYdvVzxsp4cNBUDO5FnSVPQyK9MCmvXwbuSYVVjZzeQwsSbJvDTWGXMvMpt7mwXAaIheGx81mnmi0dP1iBh3YTOdVu0R9EutFNFcwTigMpCJm9POzNE7NZJbatr6DIPeh6bVMltbwdzwe2xSFbAWPL77SkRspWd1djLRpLHmJDRKEtK1EjIklkmRj0iJ3c08vDEKW1TBGfcibw2qIKnGEMKyKhgZIDY7aI1Pom2ZQWZwqLCSSqHtbLkD2QTW2Yv7JgKnx5zPNa8cwFS4dvgx49gH63GfyHukIQB27v81kBLyBmmiTUB2xd0SMkalUpEGGiBG4tu0erm2ej8cb4QKzPRlhWMfhBfiPBwqQ46Yq1"" int_4))))))
(check-sat)
(exit)

